p cnf 100 22
4 0
-4 -5 26 0
-4 30 -91 2 0
-4 -75 93 1 0
-4 23 67 1 0
-4 92 69 61 0
-4 38 -17 5 0
-37 26 52 0
-30 33 86 0
-44 8 -5 0
62 -29 -33 0
-69 -12 87 0
-69 -67 52 0
29 75 -51 0
-10 -17 12 0
-10 17 3 0
-17 52 -8 0
-26 -65 -1 0
-26 -93 -23 0
-52 14 -3 0
-52 -3 -75 0
-65 1 0
